files/upTests/__essence_catalog/prob010/0004.eprime.solution
language ESSENCE' 1.0
$ minion Nodes: 4
$ minion TotalTime: 0.013453
$ Savile Row TotalTime: 1.805
letting sched_Explicit_MSetOfSets_Explicit_Explicit be [[[1, 2;int(1..2)], 
[3, 4;int(1..2)];int(1..2)], 
[[1, 2;int(1..2)], 
[3, 4;int(1..2)];int(1..2)], 
[[1, 2;int(1..2)], 
[3, 4;int(1..2)];int(1..2)];int(1..3)]
